NAME : XML100_2376_19
DIMENSION : 101
NB_CLUSTERS : 23
CLUSTERING_ALG : DBSCAN
CLUSTERING_PARAMS : eps(36), minSamples(3)
CLUSTERS
1 0
2 4 7 17 22 36 44 46 48 58 64 66 68 78 87 95
3 8 12 14 16 35 37 47 59 60 82 85 86
4 21 50 56 73 93 96 100
5 39 57 71
6 65 72
7 9 49 63 98
8 28 38 92 99
9 3 15 24 26 32 42 55 69 75
10 2 19 52 53 70 77 81 84
11 18 30
12 6 23
13 40 43 94
14 62 83
15 13 20 27
16 29 33 34 41 80 88
17 61 91
18 51 54
19 5 89
20 10 11 76
21 31 67 74 90 97
22 1 45
23 25 79
EOF